NAME : Euclidean Random Tour : n = 100, sample = 22 
COMMENT : Coordinates are generated uniformly sampled from [0, 100000] x [0, 100000] 
DIMENSION : 100 
EDGE_WEIGHT_TYPE : EUC_2D 
TOUR_SECTION 
1
35
49
100
31
9
7
90
39
72
57
8
86
29
38
73
15
84
93
37
43
63
30
71
21
19
69
66
12
44
14
68
55
74
3
47
62
33
24
95
88
40
83
58
98
50
6
4
78
17
52
22
80
13
2
27
79
92
53
34
51
96
11
99
81
64
20
85
75
28
32
94
67
23
89
54
59
48
36
16
87
77
25
5
10
46
76
18
41
65
91
61
42
70
60
26
45
56
97
82
-1
